10 10
69 175 3 1 1 18 367 364 1 1
458 1 66 7 117 1 1 22 2 325
1 464 120 35 1 26 2 9 277 65
142 1 290 1 172 13 378 1 1 1
15 1 3 2 28 195 134 13 9 600
2 14 15 365 41 1 54 1 506 1
98 232 60 1 438 1 1 161 7 1
45 1 435 4 28 412 2 47 25 1
169 1 1 318 173 4 1 328 1 4
1 110 7 266 1 329 60 54 171 1
